c t pmc
c file mc2022_track3_031.cnf
p cnf 110 610
c p show 1 7 15 16 19 27 29 31 35 44 52 53 54 55 56 65 66 67 69 71 74 78 79 82 85 87 89 90 94 96 100 102 107 108 110 0
-1 0
-56 0
37 0
-92 0
-47 0
102 0
93 -38 76 -21 0
-105 50 14 -69 0
-93 38 -76 21 0
-38 -93 -76 -21 0
-21 76 87 -32 0
24 34 79 89 0
-44 -99 -79 -24 0
-46 -39 -94 -101 0
-99 44 -79 24 0
-44 99 79 -24 0
44 99 79 24 0
-23 -78 -81 -26 0
-78 23 -81 26 0
78 -23 81 -26 0
-108 53 41 -96 0
23 78 81 26 0
-107 52 41 -96 0
-23 -78 -30 -85 0
23 78 45 100 0
-23 -78 -80 -25 0
18 -73 -79 24 0
20 18 -75 -73 0
-22 -77 -25 -80 0
-76 -104 -49 -21 0
-77 -22 -88 -33 0
-77 22 -88 33 0
77 -22 88 -33 0
-105 -101 50 46 0
-28 83 -53 108 0
28 83 53 108 0
-82 -27 -29 -84 0
-26 -55 -81 -110 0
27 -82 29 -84 0
28 83 82 27 0
-28 83 82 -27 0
-90 -73 18 35 0
19 74 76 21 0
-27 82 -29 84 0
-19 74 76 -21 0
82 27 29 84 0
19 -74 -76 21 0
-109 -54 -75 -20 0
75 20 91 36 0
-36 75 91 -20 0
36 -91 -75 20 0
-91 -36 -75 -20 0
107 52 75 20 0
-52 107 75 -20 0
-24 -34 -79 -89 0
20 -107 -75 52 0
-89 34 -79 24 0
-107 -52 -75 -20 0
38 93 76 21 0
89 -34 79 -24 0
14 -69 -97 42 0
-13 -68 -79 -24 0
-26 -81 -13 -68 0
-103 -67 -48 -12 0
-67 12 48 -103 0
-38 -93 -15 -70 0
-93 38 15 -70 0
107 -52 -16 71 0
107 52 16 71 0
-16 71 86 -31 0
-16 -39 -94 -71 0
-103 -16 -48 -71 0
16 -71 48 -103 0
-16 71 -48 103 0
103 16 48 71 0
-28 -83 -15 -70 0
28 -83 15 -70 0
-28 83 -15 70 0
28 83 15 70 0
70 -15 72 -17 0
-17 72 -45 100 0
-30 85 72 -17 0
-20 -17 72 75 0
-19 -74 -16 -71 0
95 -4 59 -40 0
-26 -58 -81 -3 0
-58 3 -81 26 0
-76 -110 -55 -21 0
22 77 88 33 0
-51 77 106 -22 0
51 -77 -106 22 0
-77 -22 -106 -51 0
46 77 101 22 0
77 -22 101 -46 0
-101 46 -77 22 0
-101 -46 -77 -22 0
77 22 30 85 0
85 77 -30 -22 0
-85 -77 30 22 0
-77 -22 -30 -85 0
107 52 77 22 0
107 -52 77 -22 0
-107 52 -77 22 0
-107 -52 -77 -22 0
109 54 75 20 0
109 -54 75 -20 0
-109 54 -75 20 0
19 -74 16 -71 0
-19 74 -16 71 0
19 74 16 71 0
-23 -78 -16 -71 0
-78 23 16 -71 0
78 -23 -16 71 0
23 78 16 71 0
-107 -52 -16 -71 0
72 76 -17 -21 0
-99 44 43 -98 0
-44 99 -43 98 0
-109 54 48 -103 0
44 99 43 98 0
-109 -54 -107 -52 0
-109 54 -107 52 0
-52 109 107 -54 0
-103 -109 -48 -54 0
109 54 107 52 0
-107 -52 -106 -51 0
51 -107 -106 52 0
-51 107 106 -52 0
107 52 106 51 0
-53 -108 -50 -105 0
53 108 50 105 0
105 -53 -50 108 0
-108 53 50 -105 0
38 -93 45 -100 0
-38 -93 -45 -100 0
85 78 -30 -23 0
23 78 30 85 0
-23 -53 -78 -108 0
-44 99 109 -54 0
-104 -45 -49 -100 0
44 99 109 54 0
101 46 50 105 0
-36 -38 91 93 0
-104 -43 -49 -98 0
53 108 90 35 0
-44 -99 -91 -36 0
108 -53 90 -35 0
-108 53 -90 35 0
45 -100 42 -97 0
90 -35 95 -40 0
44 -99 -109 54 0
38 93 91 36 0
-53 -108 -90 -35 0
-85 -109 30 54 0
38 93 45 100 0
-38 93 -45 100 0
-85 -78 30 23 0
-99 44 -91 36 0
-44 -99 -109 -54 0
-44 99 91 -36 0
44 99 91 36 0
-93 38 -91 36 0
-38 -93 -91 -36 0
44 99 48 103 0
-50 -105 -43 -98 0
-105 43 50 -98 0
105 -50 -43 98 0
43 98 50 105 0
-44 -99 -43 -98 0
-28 -83 -106 -51 0
-53 108 78 -23 0
23 53 78 108 0
-23 -28 -78 -83 0
28 -83 -78 23 0
-28 83 78 -23 0
23 28 78 83 0
-23 -78 -45 -100 0
-78 23 45 -100 0
27 -82 18 -73 0
78 -23 -45 100 0
-28 -83 -45 -100 0
28 83 48 103 0
-28 83 -48 103 0
28 -83 45 -100 0
-28 83 -45 100 0
28 -83 48 -103 0
-83 -28 -48 -103 0
-25 -43 -80 -98 0
28 83 45 100 0
-103 -25 -48 -80 0
26 29 81 84 0
84 81 -29 -26 0
29 -84 -81 26 0
-26 -81 -29 -84 0
-28 -83 -53 -108 0
28 -83 53 -108 0
-50 105 101 -46 0
-101 -46 -50 -105 0
103 109 48 54 0
53 -108 -78 23 0
-103 -44 -48 -99 0
109 -54 -48 103 0
44 -99 48 -103 0
-44 99 -48 103 0
89 -19 -34 74 0
19 74 34 89 0
-19 -74 -91 -36 0
36 19 -91 -74 0
-36 -19 91 74 0
19 74 91 36 0
-19 -74 -29 -84 0
19 -74 29 -84 0
-83 -28 -82 -27 0
-19 74 -29 84 0
103 82 48 27 0
19 74 29 84 0
-27 82 -48 103 0
-19 -74 -76 -21 0
-82 27 48 -103 0
-103 -82 -48 -27 0
-89 19 34 -74 0
-19 -74 -34 -89 0
-20 87 -32 75 0
28 -83 -82 27 0
-6 -61 -38 -93 0
28 -83 -106 51 0
-28 83 106 -51 0
28 83 106 51 0
106 -51 86 -31 0
-34 89 86 -31 0
-43 98 86 -31 0
-36 91 86 -31 0
-109 -54 -30 -85 0
-51 90 106 -35 0
90 35 106 51 0
-101 -46 -34 -89 0
-89 -101 34 46 0
89 -34 101 -46 0
46 34 101 89 0
-34 -89 -50 -105 0
-89 34 50 -105 0
89 -34 -50 105 0
34 89 50 105 0
-90 -35 -34 -89 0
-89 -90 34 35 0
89 90 -34 -35 0
90 35 34 89 0
-88 -110 -55 -33 0
85 109 -30 -54 0
2 -57 11 -66 0
-82 -27 -62 -7 0
-90 -35 -106 -51 0
51 -90 -106 35 0
-60 5 10 -65 0
60 -5 -10 65 0
5 60 10 65 0
-5 -60 -16 -71 0
-7 62 -30 85 0
62 7 30 85 0
-62 -7 -106 -51 0
51 -62 -106 7 0
-51 62 106 -7 0
62 7 106 51 0
-6 -61 -10 -65 0
-61 10 6 -65 0
-6 61 -10 65 0
10 65 6 61 0
-61 6 14 -69 0
-6 -61 -82 -27 0
109 54 30 85 0
-30 -85 -45 -100 0
-85 30 45 -100 0
85 -30 -45 100 0
30 85 45 100 0
84 87 -32 -29 0
84 -29 95 -40 0
29 -84 -96 41 0
63 8 6 61 0
-93 38 6 -61 0
93 -6 -38 61 0
38 93 6 61 0
-6 -61 -25 -80 0
-101 -46 -6 -61 0
-101 46 6 -61 0
-6 61 101 -46 0
46 6 101 61 0
-5 -60 -10 -65 0
7 -62 30 -85 0
-64 -101 -9 -46 0
-101 46 9 -64 0
-9 64 101 -46 0
46 9 101 64 0
-64 -34 -9 -89 0
34 -89 9 -64 0
89 -34 -9 64 0
64 34 9 89 0
-19 -74 -63 -8 0
19 -74 -63 8 0
-19 74 63 -8 0
19 74 63 8 0
-63 -8 -88 -33 0
8 -63 -88 33 0
-8 63 88 -33 0
7 -82 -62 27 0
-7 62 82 -27 0
-90 -104 -49 -35 0
62 7 82 27 0
-53 -108 -62 -7 0
-108 53 -62 7 0
-7 62 -53 108 0
62 7 53 108 0
7 -62 14 -69 0
7 -62 42 -97 0
-62 -7 -30 -85 0
60 -5 -9 64 0
64 5 9 60 0
60 -5 -4 59 0
2 -57 -79 24 0
-77 2 -57 22 0
33 -88 -57 2 0
27 -82 2 -57 0
-105 -58 50 3 0
105 -50 58 -3 0
58 3 50 105 0
58 -3 59 -4 0
-3 -58 -79 -24 0
-58 3 -79 24 0
58 -3 79 -24 0
3 58 79 24 0
-3 -58 -13 -68 0
33 63 88 8 0
8 -63 -96 41 0
-36 91 59 -4 0
-10 65 101 -46 0
63 -8 59 -4 0
-67 -12 -76 -21 0
-67 12 -76 21 0
-21 67 76 -12 0
67 12 76 21 0
-67 -73 18 12 0
-67 -12 -50 -105 0
-105 -67 50 12 0
105 67 -50 -12 0
67 12 50 105 0
-12 -67 -13 -68 0
-67 -12 -30 -85 0
-85 -67 30 12 0
85 67 -30 -12 0
67 12 30 85 0
-38 -93 -10 -65 0
-93 38 10 -65 0
93 -38 -10 65 0
-67 12 -81 26 0
-26 -67 -81 -12 0
67 -12 81 -26 0
26 67 81 12 0
11 -66 42 -97 0
-99 -44 -66 -11 0
-99 44 -66 11 0
-44 99 66 -11 0
77 22 106 51 0
26 58 81 3 0
-58 -39 -94 -3 0
-58 -3 -50 -105 0
-60 5 16 -71 0
-5 60 -16 71 0
5 60 16 71 0
-5 -60 -63 -8 0
-60 5 -63 8 0
60 -5 63 -8 0
5 60 63 8 0
60 -5 87 -32 0
-64 -5 -9 -60 0
-60 5 9 -64 0
93 -38 -15 70 0
38 93 15 70 0
-90 -35 -15 -70 0
-70 -90 15 35 0
70 90 -15 -35 0
90 35 15 70 0
-91 -36 -15 -70 0
36 -91 15 -70 0
-36 -15 91 70 0
91 36 15 70 0
-15 -70 -43 -98 0
-70 43 15 -98 0
70 -15 -43 98 0
43 98 15 70 0
46 10 101 65 0
-64 -9 -79 -24 0
9 -64 -79 24 0
-9 64 79 -24 0
64 9 79 24 0
-74 -19 -9 -64 0
-74 19 9 -64 0
-19 74 -9 64 0
19 74 9 64 0
-9 -64 -43 -98 0
43 -98 9 -64 0
98 -9 -43 64 0
27 -82 6 -61 0
-27 -6 82 61 0
82 27 6 61 0
-6 -61 -63 -8 0
8 -63 6 -61 0
-8 -6 63 61 0
88 -33 95 -40 0
-107 -52 -88 -33 0
52 -107 -88 33 0
-52 107 88 -33 0
107 52 88 33 0
-39 -88 -94 -33 0
108 -53 87 -32 0
93 -38 87 -32 0
44 99 66 11 0
58 -3 81 -26 0
-15 -70 -66 -11 0
-70 15 -66 11 0
70 -15 66 -11 0
66 11 15 70 0
-54 -109 -66 -11 0
67 -12 -48 103 0
103 67 48 12 0
64 43 9 98 0
-64 -9 -13 -68 0
-109 54 -66 11 0
-54 109 66 -11 0
109 54 66 11 0
-66 -11 -29 -84 0
-84 29 -66 11 0
84 66 -29 -11 0
11 66 29 84 0
-104 -66 -49 -11 0
-10 -65 -75 -20 0
20 10 -75 -65 0
-20 75 -10 65 0
65 75 10 20 0
-10 -110 -55 -65 0
-17 72 -10 65 0
-107 52 16 -71 0
38 93 10 65 0
-101 -46 -10 -65 0
-101 46 10 -65 0
98 -43 104 0
-8 -63 -41 0
108 53 96 0
43 -98 49 0
-101 46 39 0
-21 76 104 0
-21 -76 -87 0
90 35 40 0
21 76 32 0
-35 -90 -95 0
7 62 97 0
-62 -7 -42 0
62 7 69 0
-6 -61 -14 0
-21 76 110 0
-60 -5 -59 0
3 -58 13 0
33 88 40 0
3 58 4 0
-12 -67 -18 0
-3 -58 -59 0
33 -88 39 0
88 -33 94 0
-57 2 13 0
-13 -68 -2 0
27 82 57 0
100 45 97 0
-6 61 80 0
-61 6 25 0
-107 -52 -41 0
66 11 97 0
107 52 96 0
-108 -53 -41 0
-100 -45 -42 0
8 63 96 0
-110 -55 -18 0
-73 18 55 0
90 -35 104 0
-27 -82 -18 0
-33 -88 -2 0
22 77 57 0
-53 -108 -87 0
-22 -77 -2 0
79 24 57 0
53 108 32 0
-76 21 55 0
-25 -80 -95 0
33 88 57 0
-24 -79 -2 0
-82 -27 -2 0
12 67 73 0
66 11 57 0
-38 -93 -87 0
-67 12 13 0
67 -12 68 0
77 -22 80 0
21 -76 49 0
-77 22 25 0
60 5 32 0
90 35 73 0
38 93 32 0
-5 -60 -87 0
-20 -75 -18 0
20 75 73 0
-24 -79 -18 0
35 -90 49 0
78 -23 80 0
24 79 73 0
-78 23 25 0
-3 58 94 0
-58 3 39 0
-36 -91 -59 0
5 60 4 0
-91 -36 -86 0
98 43 31 0
49 14 -69 0
-104 -49 -14 0
65 10 17 0
-76 -21 -72 0
98 -43 80 0
84 29 96 0
-90 -35 -18 0
34 89 31 0
-34 -89 -86 0
106 51 31 0
-15 -70 -72 0
20 75 17 0
-20 -75 -87 0
-71 -16 -86 0
76 21 17 0
66 -11 104 0
43 -98 25 0
71 16 31 0
75 20 32 0
33 -88 55 0
16 -71 39 0
-16 71 94 0
36 91 31 0
100 -45 104 0
10 -65 55 0
63 8 4 0
65 -10 110 0
-63 -8 -59 0
91 36 4 0
82 27 73 0
-10 -65 -72 0
84 29 32 0
-84 -29 -95 0
48 -103 25 0
-50 -105 -14 0
29 84 40 0
-84 -29 -41 0
9 -64 13 0
-9 64 68 0
-62 -7 -14 0
-11 -66 -42 0
6 61 69 0
101 -46 94 0
45 -100 49 0
88 -33 110 0
-88 -33 -95 0
-11 -66 -2 0
-40 95 80 0
58 -3 68 0
-75 -20 -72 0
30 85 17 0
26 -81 55 0
-30 -85 -72 0
45 100 17 0
-26 81 110 0
-106 -51 -86 0
-45 -100 -72 0
15 70 17 0
-66 11 49 0
-43 -98 -86 0
81 -26 68 0
-81 26 13 0
-48 103 80 0
-29 -84 -87 0
79 -24 68 0
-79 24 13 0
50 105 69 0
-72 17 0
69 -14 0
104 49 0
-59 4 0
-18 73 0
-59 -95 0
4 40 0
55 110 0
94 39 0
-87 32 0
-59 -42 0
97 -42 0
4 97 0
-41 -95 0
96 40 0
96 31 0
-41 -86 0
-41 96 0
-95 40 0
13 68 0
69 97 0
-42 -14 0
-86 31 0
25 80 0
-2 57 0
